(set-logic QF_SLIA)
(declare-fun var0 () String)
(assert (not (str.in_re var0 (re.++ ((_ re.loop 12 36) (re.++ (re.union (str.to_re "~Ks") (re.union (str.to_re "z+>") (re.union (str.to_re "\\_") (str.to_re "\\'`")))) (re.++ (re.union (str.to_re "h") (re.union (str.to_re "P") (re.union (str.to_re "oT") (str.to_re "&,>")))) (re.++ (re.union (str.to_re "Q") (re.union (str.to_re "b") (re.union (str.to_re "t") (str.to_re "Yx")))) (re.union (str.to_re "b[%") (re.union (str.to_re "##") (re.union (str.to_re "jD(") (str.to_re "NO")))))))) (re.++ ((_ re.loop 13 819) (re.++ (re.union (str.to_re "9/o") (re.union (str.to_re "+z") (re.union (str.to_re "|qp") (str.to_re "k")))) (re.++ (re.union (str.to_re "p") (re.union (str.to_re ";;K") (re.union (str.to_re "W$") (str.to_re "w")))) (re.++ (re.union (str.to_re "'*d") (re.union (str.to_re "Oi:") (re.union (str.to_re "(A") (str.to_re "tYk")))) (re.union (str.to_re "s") (re.union (str.to_re "%") (re.union (str.to_re "1") (str.to_re "iVq")))))))) (re.++ ((_ re.loop 12 447) (re.++ (re.union (str.to_re "_4@") (re.union (str.to_re "m{") (re.union (str.to_re "/") (str.to_re "ho")))) (re.++ (re.union (str.to_re "t^%") (re.union (str.to_re ":\u0022") (re.union (str.to_re "g.") (str.to_re "_")))) (re.++ (re.union (str.to_re "(N-") (re.union (str.to_re "f") (re.union (str.to_re "!h") (str.to_re "1^")))) (re.union (str.to_re "V%") (re.union (str.to_re "'") (re.union (str.to_re "!nz") (str.to_re "N/")))))))) ((_ re.loop 1 374) (re.++ (re.union (str.to_re "#") (re.union (str.to_re "}") (re.union (str.to_re ">m") (str.to_re "#")))) (re.++ (re.union (str.to_re "G") (re.union (str.to_re "Te") (re.union (str.to_re "Cay") (str.to_re "$~3")))) (re.++ (re.union (str.to_re "8Z1") (re.union (str.to_re "r-") (re.union (str.to_re "c") (str.to_re "l")))) (re.union (str.to_re "&X") (re.union (str.to_re "<") (re.union (str.to_re "%,") (str.to_re ".`z"))))))))))))))
(assert (not (str.in_re var0 (re.++ ((_ re.loop 14 169) (re.++ (re.union (str.to_re "?") (re.union (str.to_re "X") (re.union (str.to_re "4") (str.to_re "TD:")))) (re.++ (re.union (str.to_re "G") (re.union (str.to_re "JF") (re.union (str.to_re "HE") (str.to_re "44")))) (re.++ (re.union (str.to_re ",*") (re.union (str.to_re "OU\\") (re.union (str.to_re "j") (str.to_re "k`2")))) (re.union (str.to_re "|Du") (re.union (str.to_re "}") (re.union (str.to_re ";5") (str.to_re "H")))))))) (re.++ ((_ re.loop 11 185) (re.++ (re.union (str.to_re ",qe") (re.union (str.to_re "y") (re.union (str.to_re "=") (str.to_re ")#~")))) (re.++ (re.union (str.to_re "Ix") (re.union (str.to_re "E3]") (re.union (str.to_re "%") (str.to_re "I")))) (re.++ (re.union (str.to_re "J5") (re.union (str.to_re "Q") (re.union (str.to_re "{") (str.to_re "%kG")))) (re.union (str.to_re "'B") (re.union (str.to_re "v\u0022$") (re.union (str.to_re "D>?") (str.to_re "{")))))))) (re.++ ((_ re.loop 15 866) (re.++ (re.union (str.to_re "Bo") (re.union (str.to_re "I") (re.union (str.to_re "aIL") (str.to_re "B]")))) (re.++ (re.union (str.to_re "X") (re.union (str.to_re "}f") (re.union (str.to_re "I") (str.to_re "/R")))) (re.++ (re.union (str.to_re "}6") (re.union (str.to_re ")~") (re.union (str.to_re "-k") (str.to_re "+kT")))) (re.union (str.to_re "|") (re.union (str.to_re "=") (re.union (str.to_re "$~=") (str.to_re "8P|")))))))) ((_ re.loop 0 615) (re.++ (re.union (str.to_re "p") (re.union (str.to_re "Te") (re.union (str.to_re "z3f") (str.to_re "m+")))) (re.++ (re.union (str.to_re "|+6") (re.union (str.to_re "Ev`") (re.union (str.to_re "Z\\;") (str.to_re "H0")))) (re.++ (re.union (str.to_re "i>") (re.union (str.to_re ",Q") (re.union (str.to_re "R") (str.to_re "^=")))) (re.union (str.to_re "'6") (re.union (str.to_re "h]#") (re.union (str.to_re "N8j") (str.to_re "%"))))))))))))))
(assert (not (str.in_re var0 (re.++ (re.* re.allchar) (re.++ (re.union (str.to_re "<") (re.union (str.to_re ">") (re.union (str.to_re "'") (re.union (str.to_re "\u0022") (str.to_re "&"))))) (re.* re.allchar))))))
(assert (<= 50 (str.len var0)))
(check-sat)
(get-model)
